161
Lattice="24.362973117493834 0.0 0.0 0.0 24.758817413 0.0 0.0 0.0 25.153151403670424" Properties=species:S:1:pos:R:3:tags:I:1:initial_magmoms:R:1 unique_id=ffa918e17353a688b0ec34e123e7e5df key_value_pairs="_JSON {\"origin\": \"StartingCandidateUnrelaxed\", \"relaxed\": 0, \"generation\": 0, \"extinct\": 0, \"gaid\": 27, \"raw_score\": -157.20393080533313, \"potential_energy\": 87.77693080533315}" confid=27 pbc="F F F"
Ni      11.98890339      12.88302154      11.93173405        1       0.00000000
Ni      14.10618675      12.88302154      10.62318097        2       0.00000000
Pt      14.10618675      12.88302154      13.24028713        2       0.00000000
Pt       9.87162003      12.88302154      10.62318097        2       0.00000000
Ni       9.87162003      12.88302154      13.24028713        2       0.00000000
Ni      10.68035031      15.00030490      11.93173405        2       0.00000000
Ni      13.29745647      15.00030490      11.93173405        2       0.00000000
Ni      10.68035031      10.76573818      11.93173405        2       0.00000000
Ni      13.29745647      10.76573818      11.93173405        2       0.00000000
Ni      11.98890339      11.57446846      14.04901741        2       0.00000000
Ni      11.98890339      14.19157462      14.04901741        2       0.00000000
Ni      11.98890339      11.57446846       9.81445069        2       0.00000000
Ni      11.98890339      14.19157462       9.81445069        2       0.00000000
Ni      16.22347012      12.88302154       9.31462789        3       0.00000000
Ni      16.22347012      12.88302154      11.93173405        3       0.00000000
Ni      16.22347012      12.88302154      14.54884022        3       0.00000000
Ni       7.75433667      12.88302154       9.31462789        3       0.00000000
Ni       7.75433667      12.88302154      11.93173405        3       0.00000000
Ni       7.75433667      12.88302154      14.54884022        3       0.00000000
Pt       9.37179723      17.11758827      11.93173405        3       0.00000000
Ni      11.98890339      17.11758827      11.93173405        3       0.00000000
Ni      14.60600955      17.11758827      11.93173405        3       0.00000000
Pt       9.37179723       8.64845482      11.93173405        3       0.00000000
Ni      11.98890339       8.64845482      11.93173405        3       0.00000000
Ni      14.60600955       8.64845482      11.93173405        3       0.00000000
Ni      11.98890339      10.26591538      16.16630078        3       0.00000000
Ni      11.98890339      12.88302154      16.16630078        3       0.00000000
Ni      11.98890339      15.50012771      16.16630078        3       0.00000000
Ni      11.98890339      10.26591538       7.69716733        3       0.00000000
Pt      11.98890339      12.88302154       7.69716733        3       0.00000000
Pt      11.98890339      15.50012771       7.69716733        3       0.00000000
Pt      14.10618675      11.57446846      15.35757050        3       0.00000000
Ni      14.10618675      14.19157462      15.35757050        3       0.00000000
Ni      14.10618675      11.57446846       8.50589761        3       0.00000000
Ni      14.10618675      14.19157462       8.50589761        3       0.00000000
Ni       9.87162003      11.57446846      15.35757050        3       0.00000000
Ni       9.87162003      14.19157462      15.35757050        3       0.00000000
Ni       9.87162003      11.57446846       8.50589761        3       0.00000000
Pt       9.87162003      14.19157462       8.50589761        3       0.00000000
Ni      15.41473984      15.00030490      10.62318097        3       0.00000000
Pt      15.41473984      15.00030490      13.24028713        3       0.00000000
Ni       8.56306695      15.00030490      10.62318097        3       0.00000000
Ni       8.56306695      15.00030490      13.24028713        3       0.00000000
Ni      15.41473984      10.76573818      10.62318097        3       0.00000000
Ni      15.41473984      10.76573818      13.24028713        3       0.00000000
Ni       8.56306695      10.76573818      10.62318097        3       0.00000000
Ni       8.56306695      10.76573818      13.24028713        3       0.00000000
Ni      10.68035031      16.30885799      14.04901741        3       0.00000000
Pt      13.29745647      16.30885799      14.04901741        3       0.00000000
Ni      10.68035031       9.45718510      14.04901741        3       0.00000000
Pt      13.29745647       9.45718510      14.04901741        3       0.00000000
Ni      10.68035031      16.30885799       9.81445069        3       0.00000000
Ni      13.29745647      16.30885799       9.81445069        3       0.00000000
Ni      10.68035031       9.45718510       9.81445069        3       0.00000000
Ni      13.29745647       9.45718510       9.81445069        3       0.00000000
Ni      18.34075348      12.88302154       8.00607481        4       0.00000000
Pt      18.34075348      12.88302154      10.62318097        4       0.00000000
Ni      18.34075348      12.88302154      13.24028713        4       0.00000000
Pt      18.34075348      12.88302154      15.85739330        4       0.00000000
Pt       5.63705331      12.88302154       8.00607481        4       0.00000000
Ni       5.63705331      12.88302154      10.62318097        4       0.00000000
Ni       5.63705331      12.88302154      13.24028713        4       0.00000000
Ni       5.63705331      12.88302154      15.85739330        4       0.00000000
Ni       8.06324415      19.23487163      11.93173405        4       0.00000000
Ni      10.68035031      19.23487163      11.93173405        4       0.00000000
Ni      13.29745647      19.23487163      11.93173405        4       0.00000000
Ni      15.91456264      19.23487163      11.93173405        4       0.00000000
Ni       8.06324415       6.53117146      11.93173405        4       0.00000000
Ni      10.68035031       6.53117146      11.93173405        4       0.00000000
Ni      13.29745647       6.53117146      11.93173405        4       0.00000000
Ni      15.91456264       6.53117146      11.93173405        4       0.00000000
Ni      11.98890339       8.95736230      18.28358414        4       0.00000000
Pt      11.98890339      11.57446846      18.28358414        4       0.00000000
Pt      11.98890339      14.19157462      18.28358414        4       0.00000000
Ni      11.98890339      16.80868079      18.28358414        4       0.00000000
Ni      11.98890339       8.95736230       5.57988397        4       0.00000000
Ni      11.98890339      11.57446846       5.57988397        4       0.00000000
Pt      11.98890339      14.19157462       5.57988397        4       0.00000000
Ni      11.98890339      16.80868079       5.57988397        4       0.00000000
Ni      16.22347012      11.57446846      16.66612358        4       0.00000000
Ni      14.10618675      10.26591538      17.47485386        4       0.00000000
Pt      16.22347012      14.19157462      16.66612358        4       0.00000000
Ni      14.10618675      12.88302154      17.47485386        4       0.00000000
Pt      14.10618675      15.50012771      17.47485386        4       0.00000000
Ni      16.22347012      11.57446846       7.19734453        4       0.00000000
Ni      14.10618675      10.26591538       6.38861425        4       0.00000000
Ni      16.22347012      14.19157462       7.19734453        4       0.00000000
Ni      14.10618675      12.88302154       6.38861425        4       0.00000000
Pt      14.10618675      15.50012771       6.38861425        4       0.00000000
Ni       7.75433667      11.57446846      16.66612358        4       0.00000000
Pt       9.87162003      10.26591538      17.47485386        4       0.00000000
Pt       7.75433667      14.19157462      16.66612358        4       0.00000000
Ni       9.87162003      12.88302154      17.47485386        4       0.00000000
Ni       9.87162003      15.50012771      17.47485386        4       0.00000000
Ni       7.75433667      11.57446846       7.19734453        4       0.00000000
Pt       9.87162003      10.26591538       6.38861425        4       0.00000000
Ni       7.75433667      14.19157462       7.19734453        4       0.00000000
Ni       9.87162003      12.88302154       6.38861425        4       0.00000000
Pt       9.87162003      15.50012771       6.38861425        4       0.00000000
Ni      16.72329292      17.11758827      10.62318097        4       0.00000000
Ni      17.53202320      15.00030490       9.31462789        4       0.00000000
Ni      16.72329292      17.11758827      13.24028713        4       0.00000000
Ni      17.53202320      15.00030490      11.93173405        4       0.00000000
Ni      17.53202320      15.00030490      14.54884022        4       0.00000000
Ni       7.25451387      17.11758827      10.62318097        4       0.00000000
Ni       6.44578359      15.00030490       9.31462789        4       0.00000000
Pt       7.25451387      17.11758827      13.24028713        4       0.00000000
Pt       6.44578359      15.00030490      11.93173405        4       0.00000000
Ni       6.44578359      15.00030490      14.54884022        4       0.00000000
Ni      16.72329292       8.64845482      10.62318097        4       0.00000000
Pt      17.53202320      10.76573818       9.31462789        4       0.00000000
Ni      16.72329292       8.64845482      13.24028713        4       0.00000000
Ni      17.53202320      10.76573818      11.93173405        4       0.00000000
Ni      17.53202320      10.76573818      14.54884022        4       0.00000000
Ni       7.25451387       8.64845482      10.62318097        4       0.00000000
Ni       6.44578359      10.76573818       9.31462789        4       0.00000000
Pt       7.25451387       8.64845482      13.24028713        4       0.00000000
Pt       6.44578359      10.76573818      11.93173405        4       0.00000000
Ni       6.44578359      10.76573818      14.54884022        4       0.00000000
Ni      10.68035031      17.61741107      16.16630078        4       0.00000000
Ni       9.37179723      18.42614135      14.04901741        4       0.00000000
Ni      13.29745647      17.61741107      16.16630078        4       0.00000000
Ni      11.98890339      18.42614135      14.04901741        4       0.00000000
Ni      14.60600955      18.42614135      14.04901741        4       0.00000000
Ni      10.68035031       8.14863202      16.16630078        4       0.00000000
Pt       9.37179723       7.33990174      14.04901741        4       0.00000000
Ni      13.29745647       8.14863202      16.16630078        4       0.00000000
Ni      11.98890339       7.33990174      14.04901741        4       0.00000000
Ni      14.60600955       7.33990174      14.04901741        4       0.00000000
Pt      10.68035031      17.61741107       7.69716733        4       0.00000000
Pt       9.37179723      18.42614135       9.81445069        4       0.00000000
Pt      13.29745647      17.61741107       7.69716733        4       0.00000000
Ni      11.98890339      18.42614135       9.81445069        4       0.00000000
Ni      14.60600955      18.42614135       9.81445069        4       0.00000000
Ni      10.68035031       8.14863202       7.69716733        4       0.00000000
Ni       9.37179723       7.33990174       9.81445069        4       0.00000000
Ni      13.29745647       8.14863202       7.69716733        4       0.00000000
Pt      11.98890339       7.33990174       9.81445069        4       0.00000000
Ni      14.60600955       7.33990174       9.81445069        4       0.00000000
Ni      15.41473984       9.45718510      15.35757050        4       0.00000000
Ni      15.41473984      16.30885799      15.35757050        4       0.00000000
Ni      15.41473984       9.45718510       8.50589761        4       0.00000000
Ni      15.41473984      16.30885799       8.50589761        4       0.00000000
Ni       8.56306695       9.45718510      15.35757050        4       0.00000000
Ni       8.56306695      16.30885799      15.35757050        4       0.00000000
Pt       8.56306695       9.45718510       8.50589761        4       0.00000000
Pt       8.56306695      16.30885799       8.50589761        4       0.00000000
H       13.52510473      19.75881741       9.16471937        0       1.00000000
H        9.43910085      11.05434246       5.00000000        0       0.00000000
H        9.00467658      11.63929796       5.11187637        0       0.00000000
C       10.47454437       8.99031838      19.16618543        0       0.00000000
O       10.12505778       8.51383186      20.15315140        0       0.00000000
H       16.86087864       5.00000000      11.93173405        0       1.00000000
H        5.35024996      16.42162246      11.20946254        0       0.00000000
H        5.68469537      16.99573334      10.89015598        0       0.00000000
H       19.36297312      14.33596157      14.13825345        0       1.00000000
C        5.97853765       7.85985815      11.93173405        0       0.00000000
O        5.00000000       7.25508863      11.93173405        0       0.00000000
H       11.98890339      17.75499679      19.81475560        0       1.00000000
H       17.39309995      12.51443854       6.25249722        0       0.00000000
H       17.39309995      13.25160454       6.25249722        0       0.00000000
149
Lattice="22.704130235 0.0 0.0 0.0 22.703700169759365 0.0 0.0 0.0 22.703700169759365" Properties=species:S:1:pos:R:3:tags:I:1:initial_magmoms:R:1 key_value_pairs="_JSON {\"extinct\": 0, \"origin\": \"RemoveAdsorbate\", \"raw_score\": -65.55570448064053, \"potential_energy\": 58.566704480640524}" pbc="F F F"
Ni      11.35185008      11.35185008      11.35185008        1       0.00000000
Pt      13.46913345      11.35185008      10.04329700        2       0.00000000
Ni      13.46913345      11.35185008      12.66040317        2       0.00000000
Ni       9.23456672      11.35185008      10.04329700        2       0.00000000
Ni       9.23456672      11.35185008      12.66040317        2       0.00000000
Ni      10.04329700      13.46913345      11.35185008        2       0.00000000
Ni      12.66040317      13.46913345      11.35185008        2       0.00000000
Pt      10.04329700       9.23456672      11.35185008        2       0.00000000
Ni      12.66040317       9.23456672      11.35185008        2       0.00000000
Ni      11.35185008      10.04329700      13.46913345        2       0.00000000
Ni      11.35185008      12.66040317      13.46913345        2       0.00000000
Ni      11.35185008      10.04329700       9.23456672        2       0.00000000
Ni      11.35185008      12.66040317       9.23456672        2       0.00000000
Pt      15.58641681      11.35185008       8.73474392        3       0.00000000
Ni      15.58641681      11.35185008      11.35185008        3       0.00000000
Pt      15.58641681      11.35185008      13.96895625        3       0.00000000
Pt       7.11728336      11.35185008       8.73474392        3       0.00000000
Pt       7.11728336      11.35185008      11.35185008        3       0.00000000
Ni       7.11728336      11.35185008      13.96895625        3       0.00000000
Pt       8.73474392      15.58641681      11.35185008        3       0.00000000
Ni      11.35185008      15.58641681      11.35185008        3       0.00000000
Ni      13.96895625      15.58641681      11.35185008        3       0.00000000
Ni       8.73474392       7.11728336      11.35185008        3       0.00000000
Ni      11.35185008       7.11728336      11.35185008        3       0.00000000
Pt      13.96895625       7.11728336      11.35185008        3       0.00000000
Ni      11.35185008       8.73474392      15.58641681        3       0.00000000
Ni      11.35185008      11.35185008      15.58641681        3       0.00000000
Ni      11.35185008      13.96895625      15.58641681        3       0.00000000
Pt      11.35185008       8.73474392       7.11728336        3       0.00000000
Ni      11.35185008      11.35185008       7.11728336        3       0.00000000
Ni      11.35185008      13.96895625       7.11728336        3       0.00000000
Ni      13.46913345      10.04329700      14.77768653        3       0.00000000
Pt      13.46913345      12.66040317      14.77768653        3       0.00000000
Ni      13.46913345      10.04329700       7.92601364        3       0.00000000
Ni      13.46913345      12.66040317       7.92601364        3       0.00000000
Pt       9.23456672      10.04329700      14.77768653        3       0.00000000
Ni       9.23456672      12.66040317      14.77768653        3       0.00000000
Ni       9.23456672      10.04329700       7.92601364        3       0.00000000
Ni       9.23456672      12.66040317       7.92601364        3       0.00000000
Ni      14.77768653      13.46913345      10.04329700        3       0.00000000
Ni      14.77768653      13.46913345      12.66040317        3       0.00000000
Ni       7.92601364      13.46913345      10.04329700        3       0.00000000
Ni       7.92601364      13.46913345      12.66040317        3       0.00000000
Ni      14.77768653       9.23456672      10.04329700        3       0.00000000
Ni      14.77768653       9.23456672      12.66040317        3       0.00000000
Ni       7.92601364       9.23456672      10.04329700        3       0.00000000
Ni       7.92601364       9.23456672      12.66040317        3       0.00000000
Pt      10.04329700      14.77768653      13.46913345        3       0.00000000
Ni      12.66040317      14.77768653      13.46913345        3       0.00000000
Pt      10.04329700       7.92601364      13.46913345        3       0.00000000
Ni      12.66040317       7.92601364      13.46913345        3       0.00000000
Ni      10.04329700      14.77768653       9.23456672        3       0.00000000
Ni      12.66040317      14.77768653       9.23456672        3       0.00000000
Ni      10.04329700       7.92601364       9.23456672        3       0.00000000
Ni      12.66040317       7.92601364       9.23456672        3       0.00000000
Ni      17.70370017      11.35185008       7.42619084        4       0.00000000
Ni      17.70370017      11.35185008      10.04329700        4       0.00000000
Ni      17.70370017      11.35185008      12.66040317        4       0.00000000
Ni      17.70370017      11.35185008      15.27750933        4       0.00000000
Ni       5.00000000      11.35185008       7.42619084        4       0.00000000
Ni       5.00000000      11.35185008      10.04329700        4       0.00000000
Ni       5.00000000      11.35185008      12.66040317        4       0.00000000
Pt       5.00000000      11.35185008      15.27750933        4       0.00000000
Pt       7.42619084      17.70370017      11.35185008        4       0.00000000
Ni      10.04329700      17.70370017      11.35185008        4       0.00000000
Pt      12.66040317      17.70370017      11.35185008        4       0.00000000
Pt      15.27750933      17.70370017      11.35185008        4       0.00000000
Ni       7.42619084       5.00000000      11.35185008        4       0.00000000
Ni      10.04329700       5.00000000      11.35185008        4       0.00000000
Ni      12.66040317       5.00000000      11.35185008        4       0.00000000
Ni      15.27750933       5.00000000      11.35185008        4       0.00000000
Ni      11.35185008       7.42619084      17.70370017        4       0.00000000
Ni      11.35185008      10.04329700      17.70370017        4       0.00000000
Pt      11.35185008      12.66040317      17.70370017        4       0.00000000
Ni      11.35185008      15.27750933      17.70370017        4       0.00000000
Ni      11.35185008       7.42619084       5.00000000        4       0.00000000
Pt      11.35185008      10.04329700       5.00000000        4       0.00000000
Ni      11.35185008      12.66040317       5.00000000        4       0.00000000
Ni      11.35185008      15.27750933       5.00000000        4       0.00000000
Ni      15.58641681      10.04329700      16.08623961        4       0.00000000
Pt      13.46913345       8.73474392      16.89496989        4       0.00000000
Ni      15.58641681      12.66040317      16.08623961        4       0.00000000
Pt      13.46913345      11.35185008      16.89496989        4       0.00000000
Pt      13.46913345      13.96895625      16.89496989        4       0.00000000
Ni      15.58641681      10.04329700       6.61746056        4       0.00000000
Ni      13.46913345       8.73474392       5.80873028        4       0.00000000
Ni      15.58641681      12.66040317       6.61746056        4       0.00000000
Ni      13.46913345      11.35185008       5.80873028        4       0.00000000
Pt      13.46913345      13.96895625       5.80873028        4       0.00000000
Pt       7.11728336      10.04329700      16.08623961        4       0.00000000
Pt       9.23456672       8.73474392      16.89496989        4       0.00000000
Ni       7.11728336      12.66040317      16.08623961        4       0.00000000
Ni       9.23456672      11.35185008      16.89496989        4       0.00000000
Ni       9.23456672      13.96895625      16.89496989        4       0.00000000
Ni       7.11728336      10.04329700       6.61746056        4       0.00000000
Pt       9.23456672       8.73474392       5.80873028        4       0.00000000
Ni       7.11728336      12.66040317       6.61746056        4       0.00000000
Pt       9.23456672      11.35185008       5.80873028        4       0.00000000
Ni       9.23456672      13.96895625       5.80873028        4       0.00000000
Ni      16.08623961      15.58641681      10.04329700        4       0.00000000
Ni      16.89496989      13.46913345       8.73474392        4       0.00000000
Ni      16.08623961      15.58641681      12.66040317        4       0.00000000
Pt      16.89496989      13.46913345      11.35185008        4       0.00000000
Ni      16.89496989      13.46913345      13.96895625        4       0.00000000
Ni       6.61746056      15.58641681      10.04329700        4       0.00000000
Pt       5.80873028      13.46913345       8.73474392        4       0.00000000
Ni       6.61746056      15.58641681      12.66040317        4       0.00000000
Ni       5.80873028      13.46913345      11.35185008        4       0.00000000
Pt       5.80873028      13.46913345      13.96895625        4       0.00000000
Pt      16.08623961       7.11728336      10.04329700        4       0.00000000
Pt      16.89496989       9.23456672       8.73474392        4       0.00000000
Ni      16.08623961       7.11728336      12.66040317        4       0.00000000
Ni      16.89496989       9.23456672      11.35185008        4       0.00000000
Ni      16.89496989       9.23456672      13.96895625        4       0.00000000
Ni       6.61746056       7.11728336      10.04329700        4       0.00000000
Ni       5.80873028       9.23456672       8.73474392        4       0.00000000
Ni       6.61746056       7.11728336      12.66040317        4       0.00000000
Ni       5.80873028       9.23456672      11.35185008        4       0.00000000
Ni       5.80873028       9.23456672      13.96895625        4       0.00000000
Ni      10.04329700      16.08623961      15.58641681        4       0.00000000
Pt       8.73474392      16.89496989      13.46913345        4       0.00000000
Ni      12.66040317      16.08623961      15.58641681        4       0.00000000
Ni      11.35185008      16.89496989      13.46913345        4       0.00000000
Ni      13.96895625      16.89496989      13.46913345        4       0.00000000
Ni      10.04329700       6.61746056      15.58641681        4       0.00000000
Ni       8.73474392       5.80873028      13.46913345        4       0.00000000
Ni      12.66040317       6.61746056      15.58641681        4       0.00000000
Pt      11.35185008       5.80873028      13.46913345        4       0.00000000
Pt      13.96895625       5.80873028      13.46913345        4       0.00000000
Ni      10.04329700      16.08623961       7.11728336        4       0.00000000
Ni       8.73474392      16.89496989       9.23456672        4       0.00000000
Ni      12.66040317      16.08623961       7.11728336        4       0.00000000
Ni      11.35185008      16.89496989       9.23456672        4       0.00000000
Ni      13.96895625      16.89496989       9.23456672        4       0.00000000
Ni      10.04329700       6.61746056       7.11728336        4       0.00000000
Ni       8.73474392       5.80873028       9.23456672        4       0.00000000
Ni      12.66040317       6.61746056       7.11728336        4       0.00000000
Pt      11.35185008       5.80873028       9.23456672        4       0.00000000
Ni      13.96895625       5.80873028       9.23456672        4       0.00000000
Ni      14.77768653       7.92601364      14.77768653        4       0.00000000
Ni      14.77768653      14.77768653      14.77768653        4       0.00000000
Ni      14.77768653       7.92601364       7.92601364        4       0.00000000
Ni      14.77768653      14.77768653       7.92601364        4       0.00000000
Ni       7.92601364       7.92601364      14.77768653        4       0.00000000
Ni       7.92601364      14.77768653      14.77768653        4       0.00000000
Ni       7.92601364       7.92601364       7.92601364        4       0.00000000
Ni       7.92601364      14.77768653       7.92601364        4       0.00000000
H       17.27297979      13.70275641       6.79442436        0       1.00000000
H       17.70413024       7.42592504      13.77820519        0       1.00000000
149
Lattice="22.96267819795655 0.0 0.0 0.0 22.703700169759365 0.0 0.0 0.0 22.703700169759365" Properties=species:S:1:pos:R:3:tags:I:1:initial_magmoms:R:1 key_value_pairs="_JSON {\"extinct\": 0, \"origin\": \"Poor2richPermutation\", \"raw_score\": -78.52153964485728, \"potential_energy\": 71.53253964485728}" pbc="F F F"
Ni      11.35185008      11.35185008      11.35185008        1       0.00000000
Ni      13.46913345      11.35185008      10.04329700        2       0.00000000
Ni      13.46913345      11.35185008      12.66040317        2       0.00000000
Pt       9.23456672      11.35185008      10.04329700        2       0.00000000
Ni       9.23456672      11.35185008      12.66040317        2       0.00000000
Ni      10.04329700      13.46913345      11.35185008        2       0.00000000
Ni      12.66040317      13.46913345      11.35185008        2       0.00000000
Ni      10.04329700       9.23456672      11.35185008        2       0.00000000
Pt      12.66040317       9.23456672      11.35185008        2       0.00000000
Pt      11.35185008      10.04329700      13.46913345        2       0.00000000
Pt      11.35185008      12.66040317      13.46913345        2       0.00000000
Ni      11.35185008      10.04329700       9.23456672        2       0.00000000
Pt      11.35185008      12.66040317       9.23456672        2       0.00000000
Pt      15.58641681      11.35185008       8.73474392        3       0.00000000
Ni      15.58641681      11.35185008      11.35185008        3       0.00000000
Ni      15.58641681      11.35185008      13.96895625        3       0.00000000
Ni       7.11728336      11.35185008       8.73474392        3       0.00000000
Ni       7.11728336      11.35185008      11.35185008        3       0.00000000
Pt       7.11728336      11.35185008      13.96895625        3       0.00000000
Ni       8.73474392      15.58641681      11.35185008        3       0.00000000
Ni      11.35185008      15.58641681      11.35185008        3       0.00000000
Pt      13.96895625      15.58641681      11.35185008        3       0.00000000
Pt       8.73474392       7.11728336      11.35185008        3       0.00000000
Ni      11.35185008       7.11728336      11.35185008        3       0.00000000
Pt      13.96895625       7.11728336      11.35185008        3       0.00000000
Ni      11.35185008       8.73474392      15.58641681        3       0.00000000
Ni      11.35185008      11.35185008      15.58641681        3       0.00000000
Ni      11.35185008      13.96895625      15.58641681        3       0.00000000
Pt      11.35185008       8.73474392       7.11728336        3       0.00000000
Ni      11.35185008      11.35185008       7.11728336        3       0.00000000
Pt      11.35185008      13.96895625       7.11728336        3       0.00000000
Ni      13.46913345      10.04329700      14.77768653        3       0.00000000
Ni      13.46913345      12.66040317      14.77768653        3       0.00000000
Ni      13.46913345      10.04329700       7.92601364        3       0.00000000
Ni      13.46913345      12.66040317       7.92601364        3       0.00000000
Pt       9.23456672      10.04329700      14.77768653        3       0.00000000
Pt       9.23456672      12.66040317      14.77768653        3       0.00000000
Ni       9.23456672      10.04329700       7.92601364        3       0.00000000
Ni       9.23456672      12.66040317       7.92601364        3       0.00000000
Pt      14.77768653      13.46913345      10.04329700        3       0.00000000
Ni      14.77768653      13.46913345      12.66040317        3       0.00000000
Pt       7.92601364      13.46913345      10.04329700        3       0.00000000
Ni       7.92601364      13.46913345      12.66040317        3       0.00000000
Ni      14.77768653       9.23456672      10.04329700        3       0.00000000
Ni      14.77768653       9.23456672      12.66040317        3       0.00000000
Pt       7.92601364       9.23456672      10.04329700        3       0.00000000
Ni       7.92601364       9.23456672      12.66040317        3       0.00000000
Pt      10.04329700      14.77768653      13.46913345        3       0.00000000
Ni      12.66040317      14.77768653      13.46913345        3       0.00000000
Ni      10.04329700       7.92601364      13.46913345        3       0.00000000
Ni      12.66040317       7.92601364      13.46913345        3       0.00000000
Ni      10.04329700      14.77768653       9.23456672        3       0.00000000
Ni      12.66040317      14.77768653       9.23456672        3       0.00000000
Ni      10.04329700       7.92601364       9.23456672        3       0.00000000
Ni      12.66040317       7.92601364       9.23456672        3       0.00000000
Ni      17.70370017      11.35185008       7.42619084        4       0.00000000
Ni      17.70370017      11.35185008      10.04329700        4       0.00000000
Ni      17.70370017      11.35185008      12.66040317        4       0.00000000
Ni      17.70370017      11.35185008      15.27750933        4       0.00000000
Ni       5.00000000      11.35185008       7.42619084        4       0.00000000
Ni       5.00000000      11.35185008      10.04329700        4       0.00000000
Ni       5.00000000      11.35185008      12.66040317        4       0.00000000
Pt       5.00000000      11.35185008      15.27750933        4       0.00000000
Ni       7.42619084      17.70370017      11.35185008        4       0.00000000
Ni      10.04329700      17.70370017      11.35185008        4       0.00000000
Pt      12.66040317      17.70370017      11.35185008        4       0.00000000
Ni      15.27750933      17.70370017      11.35185008        4       0.00000000
Ni       7.42619084       5.00000000      11.35185008        4       0.00000000
Ni      10.04329700       5.00000000      11.35185008        4       0.00000000
Ni      12.66040317       5.00000000      11.35185008        4       0.00000000
Ni      15.27750933       5.00000000      11.35185008        4       0.00000000
Ni      11.35185008       7.42619084      17.70370017        4       0.00000000
Ni      11.35185008      10.04329700      17.70370017        4       0.00000000
Ni      11.35185008      12.66040317      17.70370017        4       0.00000000
Ni      11.35185008      15.27750933      17.70370017        4       0.00000000
Ni      11.35185008       7.42619084       5.00000000        4       0.00000000
Ni      11.35185008      10.04329700       5.00000000        4       0.00000000
Pt      11.35185008      12.66040317       5.00000000        4       0.00000000
Ni      11.35185008      15.27750933       5.00000000        4       0.00000000
Ni      15.58641681      10.04329700      16.08623961        4       0.00000000
Ni      13.46913345       8.73474392      16.89496989        4       0.00000000
Ni      15.58641681      12.66040317      16.08623961        4       0.00000000
Ni      13.46913345      11.35185008      16.89496989        4       0.00000000
Ni      13.46913345      13.96895625      16.89496989        4       0.00000000
Pt      15.58641681      10.04329700       6.61746056        4       0.00000000
Ni      13.46913345       8.73474392       5.80873028        4       0.00000000
Ni      15.58641681      12.66040317       6.61746056        4       0.00000000
Pt      13.46913345      11.35185008       5.80873028        4       0.00000000
Pt      13.46913345      13.96895625       5.80873028        4       0.00000000
Ni       7.11728336      10.04329700      16.08623961        4       0.00000000
Ni       9.23456672       8.73474392      16.89496989        4       0.00000000
Ni       7.11728336      12.66040317      16.08623961        4       0.00000000
Pt       9.23456672      11.35185008      16.89496989        4       0.00000000
Ni       9.23456672      13.96895625      16.89496989        4       0.00000000
Ni       7.11728336      10.04329700       6.61746056        4       0.00000000
Ni       9.23456672       8.73474392       5.80873028        4       0.00000000
Ni       7.11728336      12.66040317       6.61746056        4       0.00000000
Ni       9.23456672      11.35185008       5.80873028        4       0.00000000
Pt       9.23456672      13.96895625       5.80873028        4       0.00000000
Ni      16.08623961      15.58641681      10.04329700        4       0.00000000
Pt      16.89496989      13.46913345       8.73474392        4       0.00000000
Pt      16.08623961      15.58641681      12.66040317        4       0.00000000
Ni      16.89496989      13.46913345      11.35185008        4       0.00000000
Ni      16.89496989      13.46913345      13.96895625        4       0.00000000
Ni       6.61746056      15.58641681      10.04329700        4       0.00000000
Pt       5.80873028      13.46913345       8.73474392        4       0.00000000
Pt       6.61746056      15.58641681      12.66040317        4       0.00000000
Pt       5.80873028      13.46913345      11.35185008        4       0.00000000
Pt       5.80873028      13.46913345      13.96895625        4       0.00000000
Ni      16.08623961       7.11728336      10.04329700        4       0.00000000
Pt      16.89496989       9.23456672       8.73474392        4       0.00000000
Ni      16.08623961       7.11728336      12.66040317        4       0.00000000
Ni      16.89496989       9.23456672      11.35185008        4       0.00000000
Ni      16.89496989       9.23456672      13.96895625        4       0.00000000
Ni       6.61746056       7.11728336      10.04329700        4       0.00000000
Ni       5.80873028       9.23456672       8.73474392        4       0.00000000
Ni       6.61746056       7.11728336      12.66040317        4       0.00000000
Ni       5.80873028       9.23456672      11.35185008        4       0.00000000
Ni       5.80873028       9.23456672      13.96895625        4       0.00000000
Ni      10.04329700      16.08623961      15.58641681        4       0.00000000
Ni       8.73474392      16.89496989      13.46913345        4       0.00000000
Ni      12.66040317      16.08623961      15.58641681        4       0.00000000
Ni      11.35185008      16.89496989      13.46913345        4       0.00000000
Ni      13.96895625      16.89496989      13.46913345        4       0.00000000
Ni      10.04329700       6.61746056      15.58641681        4       0.00000000
Ni       8.73474392       5.80873028      13.46913345        4       0.00000000
Ni      12.66040317       6.61746056      15.58641681        4       0.00000000
Ni      11.35185008       5.80873028      13.46913345        4       0.00000000
Ni      13.96895625       5.80873028      13.46913345        4       0.00000000
Ni      10.04329700      16.08623961       7.11728336        4       0.00000000
Ni       8.73474392      16.89496989       9.23456672        4       0.00000000
Ni      12.66040317      16.08623961       7.11728336        4       0.00000000
Ni      11.35185008      16.89496989       9.23456672        4       0.00000000
Ni      13.96895625      16.89496989       9.23456672        4       0.00000000
Pt      10.04329700       6.61746056       7.11728336        4       0.00000000
Ni       8.73474392       5.80873028       9.23456672        4       0.00000000
Ni      12.66040317       6.61746056       7.11728336        4       0.00000000
Pt      11.35185008       5.80873028       9.23456672        4       0.00000000
Ni      13.96895625       5.80873028       9.23456672        4       0.00000000
Ni      14.77768653       7.92601364      14.77768653        4       0.00000000
Ni      14.77768653      14.77768653      14.77768653        4       0.00000000
Ni      14.77768653       7.92601364       7.92601364        4       0.00000000
Ni      14.77768653      14.77768653       7.92601364        4       0.00000000
Pt       7.92601364       7.92601364      14.77768653        4       0.00000000
Ni       7.92601364      14.77768653      14.77768653        4       0.00000000
Ni       7.92601364       7.92601364       7.92601364        4       0.00000000
Ni       7.92601364      14.77768653       7.92601364        4       0.00000000
H       17.96267820      14.31710901      10.17481556        0       0.00000000
H       17.71695620      14.96041756       9.91177844        0       0.00000000
147
Lattice="22.703700169759365 0.0 0.0 0.0 22.703700169759365 0.0 0.0 0.0 22.703700169759365" Properties=species:S:1:pos:R:3:tags:I:1:initial_magmoms:R:1 key_value_pairs="_JSON {\"extinct\": 0, \"origin\": \"RemoveAdsorbate\", \"raw_score\": -61.092510393999284, \"potential_energy\": 61.092510393999284}" pbc="F F F"
Ni      11.35185008      11.35185008      11.35185008        1       0.00000000
Ni      13.46913345      11.35185008      10.04329700        2       0.00000000
Ni      13.46913345      11.35185008      12.66040317        2       0.00000000
Pt       9.23456672      11.35185008      10.04329700        2       0.00000000
Ni       9.23456672      11.35185008      12.66040317        2       0.00000000
Ni      10.04329700      13.46913345      11.35185008        2       0.00000000
Ni      12.66040317      13.46913345      11.35185008        2       0.00000000
Ni      10.04329700       9.23456672      11.35185008        2       0.00000000
Pt      12.66040317       9.23456672      11.35185008        2       0.00000000
Pt      11.35185008      10.04329700      13.46913345        2       0.00000000
Pt      11.35185008      12.66040317      13.46913345        2       0.00000000
Ni      11.35185008      10.04329700       9.23456672        2       0.00000000
Pt      11.35185008      12.66040317       9.23456672        2       0.00000000
Pt      15.58641681      11.35185008       8.73474392        3       0.00000000
Ni      15.58641681      11.35185008      11.35185008        3       0.00000000
Pt      15.58641681      11.35185008      13.96895625        3       0.00000000
Ni       7.11728336      11.35185008       8.73474392        3       0.00000000
Ni       7.11728336      11.35185008      11.35185008        3       0.00000000
Pt       7.11728336      11.35185008      13.96895625        3       0.00000000
Ni       8.73474392      15.58641681      11.35185008        3       0.00000000
Ni      11.35185008      15.58641681      11.35185008        3       0.00000000
Pt      13.96895625      15.58641681      11.35185008        3       0.00000000
Ni       8.73474392       7.11728336      11.35185008        3       0.00000000
Ni      11.35185008       7.11728336      11.35185008        3       0.00000000
Ni      13.96895625       7.11728336      11.35185008        3       0.00000000
Ni      11.35185008       8.73474392      15.58641681        3       0.00000000
Ni      11.35185008      11.35185008      15.58641681        3       0.00000000
Ni      11.35185008      13.96895625      15.58641681        3       0.00000000
Ni      11.35185008       8.73474392       7.11728336        3       0.00000000
Ni      11.35185008      11.35185008       7.11728336        3       0.00000000
Pt      11.35185008      13.96895625       7.11728336        3       0.00000000
Ni      13.46913345      10.04329700      14.77768653        3       0.00000000
Ni      13.46913345      12.66040317      14.77768653        3       0.00000000
Ni      13.46913345      10.04329700       7.92601364        3       0.00000000
Ni      13.46913345      12.66040317       7.92601364        3       0.00000000
Pt       9.23456672      10.04329700      14.77768653        3       0.00000000
Pt       9.23456672      12.66040317      14.77768653        3       0.00000000
Ni       9.23456672      10.04329700       7.92601364        3       0.00000000
Ni       9.23456672      12.66040317       7.92601364        3       0.00000000
Pt      14.77768653      13.46913345      10.04329700        3       0.00000000
Ni      14.77768653      13.46913345      12.66040317        3       0.00000000
Pt       7.92601364      13.46913345      10.04329700        3       0.00000000
Ni       7.92601364      13.46913345      12.66040317        3       0.00000000
Ni      14.77768653       9.23456672      10.04329700        3       0.00000000
Ni      14.77768653       9.23456672      12.66040317        3       0.00000000
Pt       7.92601364       9.23456672      10.04329700        3       0.00000000
Ni       7.92601364       9.23456672      12.66040317        3       0.00000000
Ni      10.04329700      14.77768653      13.46913345        3       0.00000000
Ni      12.66040317      14.77768653      13.46913345        3       0.00000000
Ni      10.04329700       7.92601364      13.46913345        3       0.00000000
Ni      12.66040317       7.92601364      13.46913345        3       0.00000000
Ni      10.04329700      14.77768653       9.23456672        3       0.00000000
Ni      12.66040317      14.77768653       9.23456672        3       0.00000000
Ni      10.04329700       7.92601364       9.23456672        3       0.00000000
Ni      12.66040317       7.92601364       9.23456672        3       0.00000000
Ni      17.70370017      11.35185008       7.42619084        4       0.00000000
Ni      17.70370017      11.35185008      10.04329700        4       0.00000000
Ni      17.70370017      11.35185008      12.66040317        4       0.00000000
Ni      17.70370017      11.35185008      15.27750933        4       0.00000000
Ni       5.00000000      11.35185008       7.42619084        4       0.00000000
Ni       5.00000000      11.35185008      10.04329700        4       0.00000000
Ni       5.00000000      11.35185008      12.66040317        4       0.00000000
Pt       5.00000000      11.35185008      15.27750933        4       0.00000000
Ni       7.42619084      17.70370017      11.35185008        4       0.00000000
Ni      10.04329700      17.70370017      11.35185008        4       0.00000000
Pt      12.66040317      17.70370017      11.35185008        4       0.00000000
Ni      15.27750933      17.70370017      11.35185008        4       0.00000000
Pt       7.42619084       5.00000000      11.35185008        4       0.00000000
Ni      10.04329700       5.00000000      11.35185008        4       0.00000000
Ni      12.66040317       5.00000000      11.35185008        4       0.00000000
Ni      15.27750933       5.00000000      11.35185008        4       0.00000000
Ni      11.35185008       7.42619084      17.70370017        4       0.00000000
Ni      11.35185008      10.04329700      17.70370017        4       0.00000000
Ni      11.35185008      12.66040317      17.70370017        4       0.00000000
Ni      11.35185008      15.27750933      17.70370017        4       0.00000000
Ni      11.35185008       7.42619084       5.00000000        4       0.00000000
Ni      11.35185008      10.04329700       5.00000000        4       0.00000000
Pt      11.35185008      12.66040317       5.00000000        4       0.00000000
Ni      11.35185008      15.27750933       5.00000000        4       0.00000000
Ni      15.58641681      10.04329700      16.08623961        4       0.00000000
Ni      13.46913345       8.73474392      16.89496989        4       0.00000000
Ni      15.58641681      12.66040317      16.08623961        4       0.00000000
Ni      13.46913345      11.35185008      16.89496989        4       0.00000000
Ni      13.46913345      13.96895625      16.89496989        4       0.00000000
Pt      15.58641681      10.04329700       6.61746056        4       0.00000000
Ni      13.46913345       8.73474392       5.80873028        4       0.00000000
Ni      15.58641681      12.66040317       6.61746056        4       0.00000000
Pt      13.46913345      11.35185008       5.80873028        4       0.00000000
Pt      13.46913345      13.96895625       5.80873028        4       0.00000000
Ni       7.11728336      10.04329700      16.08623961        4       0.00000000
Ni       9.23456672       8.73474392      16.89496989        4       0.00000000
Ni       7.11728336      12.66040317      16.08623961        4       0.00000000
Pt       9.23456672      11.35185008      16.89496989        4       0.00000000
Ni       9.23456672      13.96895625      16.89496989        4       0.00000000
Ni       7.11728336      10.04329700       6.61746056        4       0.00000000
Ni       9.23456672       8.73474392       5.80873028        4       0.00000000
Ni       7.11728336      12.66040317       6.61746056        4       0.00000000
Ni       9.23456672      11.35185008       5.80873028        4       0.00000000
Pt       9.23456672      13.96895625       5.80873028        4       0.00000000
Ni      16.08623961      15.58641681      10.04329700        4       0.00000000
Pt      16.89496989      13.46913345       8.73474392        4       0.00000000
Pt      16.08623961      15.58641681      12.66040317        4       0.00000000
Ni      16.89496989      13.46913345      11.35185008        4       0.00000000
Ni      16.89496989      13.46913345      13.96895625        4       0.00000000
Ni       6.61746056      15.58641681      10.04329700        4       0.00000000
Pt       5.80873028      13.46913345       8.73474392        4       0.00000000
Pt       6.61746056      15.58641681      12.66040317        4       0.00000000
Pt       5.80873028      13.46913345      11.35185008        4       0.00000000
Pt       5.80873028      13.46913345      13.96895625        4       0.00000000
Ni      16.08623961       7.11728336      10.04329700        4       0.00000000
Pt      16.89496989       9.23456672       8.73474392        4       0.00000000
Ni      16.08623961       7.11728336      12.66040317        4       0.00000000
Ni      16.89496989       9.23456672      11.35185008        4       0.00000000
Ni      16.89496989       9.23456672      13.96895625        4       0.00000000
Ni       6.61746056       7.11728336      10.04329700        4       0.00000000
Ni       5.80873028       9.23456672       8.73474392        4       0.00000000
Ni       6.61746056       7.11728336      12.66040317        4       0.00000000
Ni       5.80873028       9.23456672      11.35185008        4       0.00000000
Ni       5.80873028       9.23456672      13.96895625        4       0.00000000
Pt      10.04329700      16.08623961      15.58641681        4       0.00000000
Ni       8.73474392      16.89496989      13.46913345        4       0.00000000
Ni      12.66040317      16.08623961      15.58641681        4       0.00000000
Ni      11.35185008      16.89496989      13.46913345        4       0.00000000
Ni      13.96895625      16.89496989      13.46913345        4       0.00000000
Pt      10.04329700       6.61746056      15.58641681        4       0.00000000
Ni       8.73474392       5.80873028      13.46913345        4       0.00000000
Ni      12.66040317       6.61746056      15.58641681        4       0.00000000
Ni      11.35185008       5.80873028      13.46913345        4       0.00000000
Ni      13.96895625       5.80873028      13.46913345        4       0.00000000
Ni      10.04329700      16.08623961       7.11728336        4       0.00000000
Ni       8.73474392      16.89496989       9.23456672        4       0.00000000
Ni      12.66040317      16.08623961       7.11728336        4       0.00000000
Ni      11.35185008      16.89496989       9.23456672        4       0.00000000
Ni      13.96895625      16.89496989       9.23456672        4       0.00000000
Pt      10.04329700       6.61746056       7.11728336        4       0.00000000
Ni       8.73474392       5.80873028       9.23456672        4       0.00000000
Ni      12.66040317       6.61746056       7.11728336        4       0.00000000
Pt      11.35185008       5.80873028       9.23456672        4       0.00000000
Ni      13.96895625       5.80873028       9.23456672        4       0.00000000
Ni      14.77768653       7.92601364      14.77768653        4       0.00000000
Ni      14.77768653      14.77768653      14.77768653        4       0.00000000
Ni      14.77768653       7.92601364       7.92601364        4       0.00000000
Ni      14.77768653      14.77768653       7.92601364        4       0.00000000
Pt       7.92601364       7.92601364      14.77768653        4       0.00000000
Ni       7.92601364      14.77768653      14.77768653        4       0.00000000
Ni       7.92601364       7.92601364       7.92601364        4       0.00000000
Ni       7.92601364      14.77768653       7.92601364        4       0.00000000
151
Lattice="23.72591981 0.0 0.0 0.0 24.758817413 0.0 0.0 0.0 24.234871628" Properties=species:S:1:pos:R:3:tags:I:1:initial_magmoms:R:1 key_value_pairs="_JSON {\"extinct\": 0, \"origin\": \"RemoveAdsorbate\", \"raw_score\": -73.33118880520603, \"potential_energy\": 59.35318880520603}" pbc="F F F"
Ni      11.35185008      12.88302154      11.35185008        1       0.00000000
Pt      13.46913345      12.88302154      10.04329700        2       0.00000000
Pt      13.46913345      12.88302154      12.66040317        2       0.00000000
Pt       9.23456672      12.88302154      10.04329700        2       0.00000000
Ni       9.23456672      12.88302154      12.66040317        2       0.00000000
Ni      10.04329700      15.00030490      11.35185008        2       0.00000000
Ni      12.66040317      15.00030490      11.35185008        2       0.00000000
Ni      10.04329700      10.76573818      11.35185008        2       0.00000000
Ni      12.66040317      10.76573818      11.35185008        2       0.00000000
Ni      11.35185008      11.57446846      13.46913345        2       0.00000000
Ni      11.35185008      14.19157462      13.46913345        2       0.00000000
Ni      11.35185008      11.57446846       9.23456672        2       0.00000000
Ni      11.35185008      14.19157462       9.23456672        2       0.00000000
Ni      15.58641681      12.88302154       8.73474392        3       0.00000000
Ni      15.58641681      12.88302154      11.35185008        3       0.00000000
Ni      15.58641681      12.88302154      13.96895625        3       0.00000000
Ni       7.11728336      12.88302154       8.73474392        3       0.00000000
Ni       7.11728336      12.88302154      11.35185008        3       0.00000000
Ni       7.11728336      12.88302154      13.96895625        3       0.00000000
Pt       8.73474392      17.11758827      11.35185008        3       0.00000000
Ni      11.35185008      17.11758827      11.35185008        3       0.00000000
Ni      13.96895625      17.11758827      11.35185008        3       0.00000000
Pt       8.73474392       8.64845482      11.35185008        3       0.00000000
Ni      11.35185008       8.64845482      11.35185008        3       0.00000000
Ni      13.96895625       8.64845482      11.35185008        3       0.00000000
Ni      11.35185008      10.26591538      15.58641681        3       0.00000000
Ni      11.35185008      12.88302154      15.58641681        3       0.00000000
Ni      11.35185008      15.50012771      15.58641681        3       0.00000000
Ni      11.35185008      10.26591538       7.11728336        3       0.00000000
Ni      11.35185008      12.88302154       7.11728336        3       0.00000000
Pt      11.35185008      15.50012771       7.11728336        3       0.00000000
Pt      13.46913345      11.57446846      14.77768653        3       0.00000000
Ni      13.46913345      14.19157462      14.77768653        3       0.00000000
Ni      13.46913345      11.57446846       7.92601364        3       0.00000000
Ni      13.46913345      14.19157462       7.92601364        3       0.00000000
Ni       9.23456672      11.57446846      14.77768653        3       0.00000000
Pt       9.23456672      14.19157462      14.77768653        3       0.00000000
Ni       9.23456672      11.57446846       7.92601364        3       0.00000000
Pt       9.23456672      14.19157462       7.92601364        3       0.00000000
Ni      14.77768653      15.00030490      10.04329700        3       0.00000000
Pt      14.77768653      15.00030490      12.66040317        3       0.00000000
Ni       7.92601364      15.00030490      10.04329700        3       0.00000000
Ni       7.92601364      15.00030490      12.66040317        3       0.00000000
Ni      14.77768653      10.76573818      10.04329700        3       0.00000000
Ni      14.77768653      10.76573818      12.66040317        3       0.00000000
Ni       7.92601364      10.76573818      10.04329700        3       0.00000000
Ni       7.92601364      10.76573818      12.66040317        3       0.00000000
Ni      10.04329700      16.30885799      13.46913345        3       0.00000000
Pt      12.66040317      16.30885799      13.46913345        3       0.00000000
Ni      10.04329700       9.45718510      13.46913345        3       0.00000000
Pt      12.66040317       9.45718510      13.46913345        3       0.00000000
Ni      10.04329700      16.30885799       9.23456672        3       0.00000000
Ni      12.66040317      16.30885799       9.23456672        3       0.00000000
Ni      10.04329700       9.45718510       9.23456672        3       0.00000000
Ni      12.66040317       9.45718510       9.23456672        3       0.00000000
Ni      17.70370017      12.88302154       7.42619084        4       0.00000000
Pt      17.70370017      12.88302154      10.04329700        4       0.00000000
Ni      17.70370017      12.88302154      12.66040317        4       0.00000000
Pt      17.70370017      12.88302154      15.27750933        4       0.00000000
Ni       5.00000000      12.88302154       7.42619084        4       0.00000000
Ni       5.00000000      12.88302154      10.04329700        4       0.00000000
Ni       5.00000000      12.88302154      12.66040317        4       0.00000000
Ni       5.00000000      12.88302154      15.27750933        4       0.00000000
Ni       7.42619084      19.23487163      11.35185008        4       0.00000000
Pt      10.04329700      19.23487163      11.35185008        4       0.00000000
Pt      12.66040317      19.23487163      11.35185008        4       0.00000000
Ni      15.27750933      19.23487163      11.35185008        4       0.00000000
Ni       7.42619084       6.53117146      11.35185008        4       0.00000000
Ni      10.04329700       6.53117146      11.35185008        4       0.00000000
Ni      12.66040317       6.53117146      11.35185008        4       0.00000000
Ni      15.27750933       6.53117146      11.35185008        4       0.00000000
Ni      11.35185008       8.95736230      17.70370017        4       0.00000000
Pt      11.35185008      11.57446846      17.70370017        4       0.00000000
Pt      11.35185008      14.19157462      17.70370017        4       0.00000000
Ni      11.35185008      16.80868079      17.70370017        4       0.00000000
Ni      11.35185008       8.95736230       5.00000000        4       0.00000000
Ni      11.35185008      11.57446846       5.00000000        4       0.00000000
Pt      11.35185008      14.19157462       5.00000000        4       0.00000000
Ni      11.35185008      16.80868079       5.00000000        4       0.00000000
Ni      15.58641681      11.57446846      16.08623961        4       0.00000000
Ni      13.46913345      10.26591538      16.89496989        4       0.00000000
Pt      15.58641681      14.19157462      16.08623961        4       0.00000000
Ni      13.46913345      12.88302154      16.89496989        4       0.00000000
Pt      13.46913345      15.50012771      16.89496989        4       0.00000000
Ni      15.58641681      11.57446846       6.61746056        4       0.00000000
Ni      13.46913345      10.26591538       5.80873028        4       0.00000000
Ni      15.58641681      14.19157462       6.61746056        4       0.00000000
Ni      13.46913345      12.88302154       5.80873028        4       0.00000000
Pt      13.46913345      15.50012771       5.80873028        4       0.00000000
Ni       7.11728336      11.57446846      16.08623961        4       0.00000000
Pt       9.23456672      10.26591538      16.89496989        4       0.00000000
Ni       7.11728336      14.19157462      16.08623961        4       0.00000000
Ni       9.23456672      12.88302154      16.89496989        4       0.00000000
Ni       9.23456672      15.50012771      16.89496989        4       0.00000000
Ni       7.11728336      11.57446846       6.61746056        4       0.00000000
Pt       9.23456672      10.26591538       5.80873028        4       0.00000000
Ni       7.11728336      14.19157462       6.61746056        4       0.00000000
Ni       9.23456672      12.88302154       5.80873028        4       0.00000000
Pt       9.23456672      15.50012771       5.80873028        4       0.00000000
Ni      16.08623961      17.11758827      10.04329700        4       0.00000000
Ni      16.89496989      15.00030490       8.73474392        4       0.00000000
Ni      16.08623961      17.11758827      12.66040317        4       0.00000000
Ni      16.89496989      15.00030490      11.35185008        4       0.00000000
Ni      16.89496989      15.00030490      13.96895625        4       0.00000000
Ni       6.61746056      17.11758827      10.04329700        4       0.00000000
Ni       5.80873028      15.00030490       8.73474392        4       0.00000000
Pt       6.61746056      17.11758827      12.66040317        4       0.00000000
Pt       5.80873028      15.00030490      11.35185008        4       0.00000000
Ni       5.80873028      15.00030490      13.96895625        4       0.00000000
Ni      16.08623961       8.64845482      10.04329700        4       0.00000000
Pt      16.89496989      10.76573818       8.73474392        4       0.00000000
Ni      16.08623961       8.64845482      12.66040317        4       0.00000000
Ni      16.89496989      10.76573818      11.35185008        4       0.00000000
Ni      16.89496989      10.76573818      13.96895625        4       0.00000000
Ni       6.61746056       8.64845482      10.04329700        4       0.00000000
Ni       5.80873028      10.76573818       8.73474392        4       0.00000000
Pt       6.61746056       8.64845482      12.66040317        4       0.00000000
Pt       5.80873028      10.76573818      11.35185008        4       0.00000000
Ni       5.80873028      10.76573818      13.96895625        4       0.00000000
Ni      10.04329700      17.61741107      15.58641681        4       0.00000000
Ni       8.73474392      18.42614135      13.46913345        4       0.00000000
Ni      12.66040317      17.61741107      15.58641681        4       0.00000000
Ni      11.35185008      18.42614135      13.46913345        4       0.00000000
Ni      13.96895625      18.42614135      13.46913345        4       0.00000000
Ni      10.04329700       8.14863202      15.58641681        4       0.00000000
Pt       8.73474392       7.33990174      13.46913345        4       0.00000000
Pt      12.66040317       8.14863202      15.58641681        4       0.00000000
Ni      11.35185008       7.33990174      13.46913345        4       0.00000000
Ni      13.96895625       7.33990174      13.46913345        4       0.00000000
Pt      10.04329700      17.61741107       7.11728336        4       0.00000000
Ni       8.73474392      18.42614135       9.23456672        4       0.00000000
Pt      12.66040317      17.61741107       7.11728336        4       0.00000000
Ni      11.35185008      18.42614135       9.23456672        4       0.00000000
Ni      13.96895625      18.42614135       9.23456672        4       0.00000000
Ni      10.04329700       8.14863202       7.11728336        4       0.00000000
Ni       8.73474392       7.33990174       9.23456672        4       0.00000000
Ni      12.66040317       8.14863202       7.11728336        4       0.00000000
Ni      11.35185008       7.33990174       9.23456672        4       0.00000000
Ni      13.96895625       7.33990174       9.23456672        4       0.00000000
Ni      14.77768653       9.45718510      14.77768653        4       0.00000000
Ni      14.77768653      16.30885799      14.77768653        4       0.00000000
Pt      14.77768653       9.45718510       7.92601364        4       0.00000000
Ni      14.77768653      16.30885799       7.92601364        4       0.00000000
Ni       7.92601364       9.45718510      14.77768653        4       0.00000000
Ni       7.92601364      16.30885799      14.77768653        4       0.00000000
Pt       7.92601364       9.45718510       7.92601364        4       0.00000000
Ni       7.92601364      16.30885799       7.92601364        4       0.00000000
H       12.88805142      19.75881741       8.58483540        0       1.00000000
H       16.22382533       5.00000000      11.35185008        0       1.00000000
H       18.72591981      14.33596157      13.55836949        0       1.00000000
H       11.35185008      17.75499679      19.23487163        0       1.00000000
147
Lattice="22.703700169759365 0.0 0.0 0.0 22.703700169759365 0.0 0.0 0.0 22.703700169759365" Properties=species:S:1:pos:R:3:tags:I:1:initial_magmoms:R:1 key_value_pairs="_JSON {\"extinct\": 0, \"origin\": \"RemoveAdsorbate\", \"raw_score\": -58.23850831134198, \"potential_energy\": 58.23850831134198}" pbc="F F F"
Ni      11.35185008      11.35185008      11.35185008        1       0.00000000
Pt      13.46913345      11.35185008      10.04329700        2       0.00000000
Ni      13.46913345      11.35185008      12.66040317        2       0.00000000
Ni       9.23456672      11.35185008      10.04329700        2       0.00000000
Ni       9.23456672      11.35185008      12.66040317        2       0.00000000
Ni      10.04329700      13.46913345      11.35185008        2       0.00000000
Ni      12.66040317      13.46913345      11.35185008        2       0.00000000
Pt      10.04329700       9.23456672      11.35185008        2       0.00000000
Ni      12.66040317       9.23456672      11.35185008        2       0.00000000
Ni      11.35185008      10.04329700      13.46913345        2       0.00000000
Ni      11.35185008      12.66040317      13.46913345        2       0.00000000
Ni      11.35185008      10.04329700       9.23456672        2       0.00000000
Ni      11.35185008      12.66040317       9.23456672        2       0.00000000
Pt      15.58641681      11.35185008       8.73474392        3       0.00000000
Ni      15.58641681      11.35185008      11.35185008        3       0.00000000
Pt      15.58641681      11.35185008      13.96895625        3       0.00000000
Pt       7.11728336      11.35185008       8.73474392        3       0.00000000
Pt       7.11728336      11.35185008      11.35185008        3       0.00000000
Ni       7.11728336      11.35185008      13.96895625        3       0.00000000
Pt       8.73474392      15.58641681      11.35185008        3       0.00000000
Ni      11.35185008      15.58641681      11.35185008        3       0.00000000
Ni      13.96895625      15.58641681      11.35185008        3       0.00000000
Ni       8.73474392       7.11728336      11.35185008        3       0.00000000
Ni      11.35185008       7.11728336      11.35185008        3       0.00000000
Pt      13.96895625       7.11728336      11.35185008        3       0.00000000
Ni      11.35185008       8.73474392      15.58641681        3       0.00000000
Ni      11.35185008      11.35185008      15.58641681        3       0.00000000
Ni      11.35185008      13.96895625      15.58641681        3       0.00000000
Pt      11.35185008       8.73474392       7.11728336        3       0.00000000
Ni      11.35185008      11.35185008       7.11728336        3       0.00000000
Ni      11.35185008      13.96895625       7.11728336        3       0.00000000
Ni      13.46913345      10.04329700      14.77768653        3       0.00000000
Pt      13.46913345      12.66040317      14.77768653        3       0.00000000
Ni      13.46913345      10.04329700       7.92601364        3       0.00000000
Ni      13.46913345      12.66040317       7.92601364        3       0.00000000
Pt       9.23456672      10.04329700      14.77768653        3       0.00000000
Ni       9.23456672      12.66040317      14.77768653        3       0.00000000
Ni       9.23456672      10.04329700       7.92601364        3       0.00000000
Ni       9.23456672      12.66040317       7.92601364        3       0.00000000
Ni      14.77768653      13.46913345      10.04329700        3       0.00000000
Ni      14.77768653      13.46913345      12.66040317        3       0.00000000
Ni       7.92601364      13.46913345      10.04329700        3       0.00000000
Ni       7.92601364      13.46913345      12.66040317        3       0.00000000
Ni      14.77768653       9.23456672      10.04329700        3       0.00000000
Ni      14.77768653       9.23456672      12.66040317        3       0.00000000
Ni       7.92601364       9.23456672      10.04329700        3       0.00000000
Ni       7.92601364       9.23456672      12.66040317        3       0.00000000
Pt      10.04329700      14.77768653      13.46913345        3       0.00000000
Ni      12.66040317      14.77768653      13.46913345        3       0.00000000
Pt      10.04329700       7.92601364      13.46913345        3       0.00000000
Ni      12.66040317       7.92601364      13.46913345        3       0.00000000
Ni      10.04329700      14.77768653       9.23456672        3       0.00000000
Ni      12.66040317      14.77768653       9.23456672        3       0.00000000
Ni      10.04329700       7.92601364       9.23456672        3       0.00000000
Ni      12.66040317       7.92601364       9.23456672        3       0.00000000
Ni      17.70370017      11.35185008       7.42619084        4       0.00000000
Ni      17.70370017      11.35185008      10.04329700        4       0.00000000
Ni      17.70370017      11.35185008      12.66040317        4       0.00000000
Ni      17.70370017      11.35185008      15.27750933        4       0.00000000
Ni       5.00000000      11.35185008       7.42619084        4       0.00000000
Ni       5.00000000      11.35185008      10.04329700        4       0.00000000
Ni       5.00000000      11.35185008      12.66040317        4       0.00000000
Pt       5.00000000      11.35185008      15.27750933        4       0.00000000
Pt       7.42619084      17.70370017      11.35185008        4       0.00000000
Ni      10.04329700      17.70370017      11.35185008        4       0.00000000
Pt      12.66040317      17.70370017      11.35185008        4       0.00000000
Pt      15.27750933      17.70370017      11.35185008        4       0.00000000
Ni       7.42619084       5.00000000      11.35185008        4       0.00000000
Ni      10.04329700       5.00000000      11.35185008        4       0.00000000
Ni      12.66040317       5.00000000      11.35185008        4       0.00000000
Ni      15.27750933       5.00000000      11.35185008        4       0.00000000
Ni      11.35185008       7.42619084      17.70370017        4       0.00000000
Ni      11.35185008      10.04329700      17.70370017        4       0.00000000
Pt      11.35185008      12.66040317      17.70370017        4       0.00000000
Ni      11.35185008      15.27750933      17.70370017        4       0.00000000
Ni      11.35185008       7.42619084       5.00000000        4       0.00000000
Pt      11.35185008      10.04329700       5.00000000        4       0.00000000
Ni      11.35185008      12.66040317       5.00000000        4       0.00000000
Ni      11.35185008      15.27750933       5.00000000        4       0.00000000
Ni      15.58641681      10.04329700      16.08623961        4       0.00000000
Pt      13.46913345       8.73474392      16.89496989        4       0.00000000
Ni      15.58641681      12.66040317      16.08623961        4       0.00000000
Pt      13.46913345      11.35185008      16.89496989        4       0.00000000
Pt      13.46913345      13.96895625      16.89496989        4       0.00000000
Ni      15.58641681      10.04329700       6.61746056        4       0.00000000
Ni      13.46913345       8.73474392       5.80873028        4       0.00000000
Ni      15.58641681      12.66040317       6.61746056        4       0.00000000
Ni      13.46913345      11.35185008       5.80873028        4       0.00000000
Pt      13.46913345      13.96895625       5.80873028        4       0.00000000
Pt       7.11728336      10.04329700      16.08623961        4       0.00000000
Pt       9.23456672       8.73474392      16.89496989        4       0.00000000
Ni       7.11728336      12.66040317      16.08623961        4       0.00000000
Ni       9.23456672      11.35185008      16.89496989        4       0.00000000
Ni       9.23456672      13.96895625      16.89496989        4       0.00000000
Ni       7.11728336      10.04329700       6.61746056        4       0.00000000
Pt       9.23456672       8.73474392       5.80873028        4       0.00000000
Ni       7.11728336      12.66040317       6.61746056        4       0.00000000
Pt       9.23456672      11.35185008       5.80873028        4       0.00000000
Ni       9.23456672      13.96895625       5.80873028        4       0.00000000
Ni      16.08623961      15.58641681      10.04329700        4       0.00000000
Ni      16.89496989      13.46913345       8.73474392        4       0.00000000
Ni      16.08623961      15.58641681      12.66040317        4       0.00000000
Pt      16.89496989      13.46913345      11.35185008        4       0.00000000
Ni      16.89496989      13.46913345      13.96895625        4       0.00000000
Ni       6.61746056      15.58641681      10.04329700        4       0.00000000
Pt       5.80873028      13.46913345       8.73474392        4       0.00000000
Ni       6.61746056      15.58641681      12.66040317        4       0.00000000
Ni       5.80873028      13.46913345      11.35185008        4       0.00000000
Pt       5.80873028      13.46913345      13.96895625        4       0.00000000
Pt      16.08623961       7.11728336      10.04329700        4       0.00000000
Pt      16.89496989       9.23456672       8.73474392        4       0.00000000
Ni      16.08623961       7.11728336      12.66040317        4       0.00000000
Ni      16.89496989       9.23456672      11.35185008        4       0.00000000
Ni      16.89496989       9.23456672      13.96895625        4       0.00000000
Ni       6.61746056       7.11728336      10.04329700        4       0.00000000
Ni       5.80873028       9.23456672       8.73474392        4       0.00000000
Ni       6.61746056       7.11728336      12.66040317        4       0.00000000
Ni       5.80873028       9.23456672      11.35185008        4       0.00000000
Ni       5.80873028       9.23456672      13.96895625        4       0.00000000
Ni      10.04329700      16.08623961      15.58641681        4       0.00000000
Pt       8.73474392      16.89496989      13.46913345        4       0.00000000
Ni      12.66040317      16.08623961      15.58641681        4       0.00000000
Ni      11.35185008      16.89496989      13.46913345        4       0.00000000
Ni      13.96895625      16.89496989      13.46913345        4       0.00000000
Ni      10.04329700       6.61746056      15.58641681        4       0.00000000
Ni       8.73474392       5.80873028      13.46913345        4       0.00000000
Ni      12.66040317       6.61746056      15.58641681        4       0.00000000
Pt      11.35185008       5.80873028      13.46913345        4       0.00000000
Pt      13.96895625       5.80873028      13.46913345        4       0.00000000
Ni      10.04329700      16.08623961       7.11728336        4       0.00000000
Ni       8.73474392      16.89496989       9.23456672        4       0.00000000
Ni      12.66040317      16.08623961       7.11728336        4       0.00000000
Ni      11.35185008      16.89496989       9.23456672        4       0.00000000
Ni      13.96895625      16.89496989       9.23456672        4       0.00000000
Ni      10.04329700       6.61746056       7.11728336        4       0.00000000
Ni       8.73474392       5.80873028       9.23456672        4       0.00000000
Ni      12.66040317       6.61746056       7.11728336        4       0.00000000
Pt      11.35185008       5.80873028       9.23456672        4       0.00000000
Ni      13.96895625       5.80873028       9.23456672        4       0.00000000
Ni      14.77768653       7.92601364      14.77768653        4       0.00000000
Ni      14.77768653      14.77768653      14.77768653        4       0.00000000
Ni      14.77768653       7.92601364       7.92601364        4       0.00000000
Ni      14.77768653      14.77768653       7.92601364        4       0.00000000
Ni       7.92601364       7.92601364      14.77768653        4       0.00000000
Ni       7.92601364      14.77768653      14.77768653        4       0.00000000
Ni       7.92601364       7.92601364       7.92601364        4       0.00000000
Ni       7.92601364      14.77768653       7.92601364        4       0.00000000
148
Lattice="22.703700169759365 0.0 0.0 0.0 22.703700169759365 0.0 0.0 0.0 22.703700169759365" Properties=species:S:1:pos:R:3:tags:I:1:initial_magmoms:R:1 unique_id=4c38ae0d4aebc462c84193896e35cde1 key_value_pairs="_JSON {\"extinct\": 0, \"origin\": \"SimpleCutSpliceCrossoverWithAdsorbates\", \"raw_score\": -62.76245848515613, \"potential_energy\": 59.26795848515613}" confid=337 relax_id=337 pbc="F F F"
Ni      11.35185008      11.35185008      11.35185008        1       0.00000000
Ni      13.46913345      11.35185008      10.04329700        2       0.00000000
Ni      13.46913345      11.35185008      12.66040317        2       0.00000000
Pt       9.23456672      11.35185008      10.04329700        2       0.00000000
Ni       9.23456672      11.35185008      12.66040317        2       0.00000000
Ni      10.04329700      13.46913345      11.35185008        2       0.00000000
Ni      12.66040317      13.46913345      11.35185008        2       0.00000000
Ni      10.04329700       9.23456672      11.35185008        2       0.00000000
Pt      12.66040317       9.23456672      11.35185008        2       0.00000000
Pt      11.35185008      10.04329700      13.46913345        2       0.00000000
Ni      11.35185008      12.66040317      13.46913345        2       0.00000000
Pt      11.35185008      10.04329700       9.23456672        2       0.00000000
Ni      11.35185008      12.66040317       9.23456672        2       0.00000000
Ni      15.58641681      11.35185008       8.73474392        3       0.00000000
Ni      15.58641681      11.35185008      11.35185008        3       0.00000000
Ni      15.58641681      11.35185008      13.96895625        3       0.00000000
Ni       7.11728336      11.35185008       8.73474392        3       0.00000000
Ni       7.11728336      11.35185008      11.35185008        3       0.00000000
Ni       7.11728336      11.35185008      13.96895625        3       0.00000000
Pt       8.73474392      15.58641681      11.35185008        3       0.00000000
Ni      11.35185008      15.58641681      11.35185008        3       0.00000000
Ni      13.96895625      15.58641681      11.35185008        3       0.00000000
Ni       8.73474392       7.11728336      11.35185008        3       0.00000000
Ni      11.35185008       7.11728336      11.35185008        3       0.00000000
Ni      13.96895625       7.11728336      11.35185008        3       0.00000000
Ni      11.35185008       8.73474392      15.58641681        3       0.00000000
Ni      11.35185008      11.35185008      15.58641681        3       0.00000000
Ni      11.35185008      13.96895625      15.58641681        3       0.00000000
Ni      11.35185008       8.73474392       7.11728336        3       0.00000000
Pt      11.35185008      11.35185008       7.11728336        3       0.00000000
Pt      11.35185008      13.96895625       7.11728336        3       0.00000000
Ni      13.46913345      10.04329700      14.77768653        3       0.00000000
Ni      13.46913345      12.66040317      14.77768653        3       0.00000000
Ni      13.46913345      10.04329700       7.92601364        3       0.00000000
Ni      13.46913345      12.66040317       7.92601364        3       0.00000000
Ni       9.23456672      10.04329700      14.77768653        3       0.00000000
Ni       9.23456672      12.66040317      14.77768653        3       0.00000000
Ni       9.23456672      10.04329700       7.92601364        3       0.00000000
Pt       9.23456672      12.66040317       7.92601364        3       0.00000000
Ni      14.77768653      13.46913345      10.04329700        3       0.00000000
Ni      14.77768653      13.46913345      12.66040317        3       0.00000000
Ni       7.92601364      13.46913345      10.04329700        3       0.00000000
Ni       7.92601364      13.46913345      12.66040317        3       0.00000000
Ni      14.77768653       9.23456672      10.04329700        3       0.00000000
Ni      14.77768653       9.23456672      12.66040317        3       0.00000000
Pt       7.92601364       9.23456672      10.04329700        3       0.00000000
Ni       7.92601364       9.23456672      12.66040317        3       0.00000000
Ni      10.04329700      14.77768653      13.46913345        3       0.00000000
Ni      12.66040317      14.77768653      13.46913345        3       0.00000000
Ni      10.04329700       7.92601364      13.46913345        3       0.00000000
Ni      12.66040317       7.92601364      13.46913345        3       0.00000000
Ni      10.04329700      14.77768653       9.23456672        3       0.00000000
Ni      12.66040317      14.77768653       9.23456672        3       0.00000000
Ni      10.04329700       7.92601364       9.23456672        3       0.00000000
Ni      12.66040317       7.92601364       9.23456672        3       0.00000000
Pt      17.70370017      11.35185008       7.42619084        4       0.00000000
Ni      17.70370017      11.35185008      10.04329700        4       0.00000000
Ni      17.70370017      11.35185008      12.66040317        4       0.00000000
Ni      17.70370017      11.35185008      15.27750933        4       0.00000000
Ni       5.00000000      11.35185008       7.42619084        4       0.00000000
Ni       5.00000000      11.35185008      10.04329700        4       0.00000000
Ni       5.00000000      11.35185008      12.66040317        4       0.00000000
Ni       5.00000000      11.35185008      15.27750933        4       0.00000000
Pt       7.42619084      17.70370017      11.35185008        4       0.00000000
Ni      10.04329700      17.70370017      11.35185008        4       0.00000000
Ni      12.66040317      17.70370017      11.35185008        4       0.00000000
Pt      15.27750933      17.70370017      11.35185008        4       0.00000000
Ni       7.42619084       5.00000000      11.35185008        4       0.00000000
Pt      10.04329700       5.00000000      11.35185008        4       0.00000000
Ni      12.66040317       5.00000000      11.35185008        4       0.00000000
Ni      15.27750933       5.00000000      11.35185008        4       0.00000000
Ni      11.35185008       7.42619084      17.70370017        4       0.00000000
Ni      11.35185008      10.04329700      17.70370017        4       0.00000000
Ni      11.35185008      12.66040317      17.70370017        4       0.00000000
Ni      11.35185008      15.27750933      17.70370017        4       0.00000000
Ni      11.35185008       7.42619084       5.00000000        4       0.00000000
Pt      11.35185008      10.04329700       5.00000000        4       0.00000000
Ni      11.35185008      12.66040317       5.00000000        4       0.00000000
Ni      11.35185008      15.27750933       5.00000000        4       0.00000000
Ni      15.58641681      10.04329700      16.08623961        4       0.00000000
Ni      13.46913345       8.73474392      16.89496989        4       0.00000000
Ni      15.58641681      12.66040317      16.08623961        4       0.00000000
Ni      13.46913345      11.35185008      16.89496989        4       0.00000000
Ni      13.46913345      13.96895625      16.89496989        4       0.00000000
Ni      15.58641681      10.04329700       6.61746056        4       0.00000000
Ni      13.46913345       8.73474392       5.80873028        4       0.00000000
Ni      15.58641681      12.66040317       6.61746056        4       0.00000000
Ni      13.46913345      11.35185008       5.80873028        4       0.00000000
Ni      13.46913345      13.96895625       5.80873028        4       0.00000000
Ni       7.11728336      10.04329700      16.08623961        4       0.00000000
Pt       9.23456672       8.73474392      16.89496989        4       0.00000000
Ni       7.11728336      12.66040317      16.08623961        4       0.00000000
Ni       9.23456672      11.35185008      16.89496989        4       0.00000000
Ni       9.23456672      13.96895625      16.89496989        4       0.00000000
Ni       7.11728336      10.04329700       6.61746056        4       0.00000000
Ni       9.23456672       8.73474392       5.80873028        4       0.00000000
Pt       7.11728336      12.66040317       6.61746056        4       0.00000000
Pt       9.23456672      11.35185008       5.80873028        4       0.00000000
Ni       9.23456672      13.96895625       5.80873028        4       0.00000000
Pt      16.08623961      15.58641681      10.04329700        4       0.00000000
Ni      16.89496989      13.46913345       8.73474392        4       0.00000000
Ni      16.08623961      15.58641681      12.66040317        4       0.00000000
Ni      16.89496989      13.46913345      11.35185008        4       0.00000000
Ni      16.89496989      13.46913345      13.96895625        4       0.00000000
Ni       6.61746056      15.58641681      10.04329700        4       0.00000000
Ni       5.80873028      13.46913345       8.73474392        4       0.00000000
Pt       6.61746056      15.58641681      12.66040317        4       0.00000000
Ni       5.80873028      13.46913345      11.35185008        4       0.00000000
Ni       5.80873028      13.46913345      13.96895625        4       0.00000000
Pt      16.08623961       7.11728336      10.04329700        4       0.00000000
Pt      16.89496989       9.23456672       8.73474392        4       0.00000000
Pt      16.08623961       7.11728336      12.66040317        4       0.00000000
Ni      16.89496989       9.23456672      11.35185008        4       0.00000000
Ni      16.89496989       9.23456672      13.96895625        4       0.00000000
Ni       6.61746056       7.11728336      10.04329700        4       0.00000000
Pt       5.80873028       9.23456672       8.73474392        4       0.00000000
Ni       6.61746056       7.11728336      12.66040317        4       0.00000000
Pt       5.80873028       9.23456672      11.35185008        4       0.00000000
Pt       5.80873028       9.23456672      13.96895625        4       0.00000000
Ni      10.04329700      16.08623961      15.58641681        4       0.00000000
Pt       8.73474392      16.89496989      13.46913345        4       0.00000000
Ni      12.66040317      16.08623961      15.58641681        4       0.00000000
Ni      11.35185008      16.89496989      13.46913345        4       0.00000000
Pt      13.96895625      16.89496989      13.46913345        4       0.00000000
Ni      10.04329700       6.61746056      15.58641681        4       0.00000000
Ni       8.73474392       5.80873028      13.46913345        4       0.00000000
Pt      12.66040317       6.61746056      15.58641681        4       0.00000000
Pt      11.35185008       5.80873028      13.46913345        4       0.00000000
Pt      13.96895625       5.80873028      13.46913345        4       0.00000000
Ni      10.04329700      16.08623961       7.11728336        4       0.00000000
Ni       8.73474392      16.89496989       9.23456672        4       0.00000000
Ni      12.66040317      16.08623961       7.11728336        4       0.00000000
Ni      11.35185008      16.89496989       9.23456672        4       0.00000000
Pt      13.96895625      16.89496989       9.23456672        4       0.00000000
Pt      10.04329700       6.61746056       7.11728336        4       0.00000000
Pt       8.73474392       5.80873028       9.23456672        4       0.00000000
Ni      12.66040317       6.61746056       7.11728336        4       0.00000000
Ni      11.35185008       5.80873028       9.23456672        4       0.00000000
Pt      13.96895625       5.80873028       9.23456672        4       0.00000000
Pt      14.77768653       7.92601364      14.77768653        4       0.00000000
Ni      14.77768653      14.77768653      14.77768653        4       0.00000000
Ni      14.77768653       7.92601364       7.92601364        4       0.00000000
Ni      14.77768653      14.77768653       7.92601364        4       0.00000000
Pt       7.92601364       7.92601364      14.77768653        4       0.00000000
Ni       7.92601364      14.77768653      14.77768653        4       0.00000000
Ni       7.92601364       7.92601364       7.92601364        4       0.00000000
Ni       7.92601364      14.77768653       7.92601364        4       0.00000000
H        8.31740377       6.33358014      16.50357976        0       1.00000000
147
Lattice="22.703700169759365 0.0 0.0 0.0 22.703700169759365 0.0 0.0 0.0 22.703700169759365" Properties=species:S:1:pos:R:3:tags:I:1:initial_magmoms:R:1 key_value_pairs="_JSON {\"extinct\": 0, \"origin\": \"RemoveAdsorbate\", \"raw_score\": -58.23850831134198, \"potential_energy\": 58.23850831134198}" pbc="F F F"
Ni      11.35185008      11.35185008      11.35185008        1       0.00000000
Pt      13.46913345      11.35185008      10.04329700        2       0.00000000
Ni      13.46913345      11.35185008      12.66040317        2       0.00000000
Ni       9.23456672      11.35185008      10.04329700        2       0.00000000
Ni       9.23456672      11.35185008      12.66040317        2       0.00000000
Ni      10.04329700      13.46913345      11.35185008        2       0.00000000
Ni      12.66040317      13.46913345      11.35185008        2       0.00000000
Pt      10.04329700       9.23456672      11.35185008        2       0.00000000
Ni      12.66040317       9.23456672      11.35185008        2       0.00000000
Ni      11.35185008      10.04329700      13.46913345        2       0.00000000
Ni      11.35185008      12.66040317      13.46913345        2       0.00000000
Ni      11.35185008      10.04329700       9.23456672        2       0.00000000
Ni      11.35185008      12.66040317       9.23456672        2       0.00000000
Pt      15.58641681      11.35185008       8.73474392        3       0.00000000
Ni      15.58641681      11.35185008      11.35185008        3       0.00000000
Pt      15.58641681      11.35185008      13.96895625        3       0.00000000
Pt       7.11728336      11.35185008       8.73474392        3       0.00000000
Pt       7.11728336      11.35185008      11.35185008        3       0.00000000
Ni       7.11728336      11.35185008      13.96895625        3       0.00000000
Pt       8.73474392      15.58641681      11.35185008        3       0.00000000
Ni      11.35185008      15.58641681      11.35185008        3       0.00000000
Ni      13.96895625      15.58641681      11.35185008        3       0.00000000
Ni       8.73474392       7.11728336      11.35185008        3       0.00000000
Ni      11.35185008       7.11728336      11.35185008        3       0.00000000
Pt      13.96895625       7.11728336      11.35185008        3       0.00000000
Ni      11.35185008       8.73474392      15.58641681        3       0.00000000
Ni      11.35185008      11.35185008      15.58641681        3       0.00000000
Ni      11.35185008      13.96895625      15.58641681        3       0.00000000
Pt      11.35185008       8.73474392       7.11728336        3       0.00000000
Ni      11.35185008      11.35185008       7.11728336        3       0.00000000
Ni      11.35185008      13.96895625       7.11728336        3       0.00000000
Ni      13.46913345      10.04329700      14.77768653        3       0.00000000
Pt      13.46913345      12.66040317      14.77768653        3       0.00000000
Ni      13.46913345      10.04329700       7.92601364        3       0.00000000
Ni      13.46913345      12.66040317       7.92601364        3       0.00000000
Pt       9.23456672      10.04329700      14.77768653        3       0.00000000
Ni       9.23456672      12.66040317      14.77768653        3       0.00000000
Ni       9.23456672      10.04329700       7.92601364        3       0.00000000
Ni       9.23456672      12.66040317       7.92601364        3       0.00000000
Ni      14.77768653      13.46913345      10.04329700        3       0.00000000
Ni      14.77768653      13.46913345      12.66040317        3       0.00000000
Ni       7.92601364      13.46913345      10.04329700        3       0.00000000
Ni       7.92601364      13.46913345      12.66040317        3       0.00000000
Ni      14.77768653       9.23456672      10.04329700        3       0.00000000
Ni      14.77768653       9.23456672      12.66040317        3       0.00000000
Ni       7.92601364       9.23456672      10.04329700        3       0.00000000
Ni       7.92601364       9.23456672      12.66040317        3       0.00000000
Pt      10.04329700      14.77768653      13.46913345        3       0.00000000
Ni      12.66040317      14.77768653      13.46913345        3       0.00000000
Pt      10.04329700       7.92601364      13.46913345        3       0.00000000
Ni      12.66040317       7.92601364      13.46913345        3       0.00000000
Ni      10.04329700      14.77768653       9.23456672        3       0.00000000
Ni      12.66040317      14.77768653       9.23456672        3       0.00000000
Ni      10.04329700       7.92601364       9.23456672        3       0.00000000
Ni      12.66040317       7.92601364       9.23456672        3       0.00000000
Ni      17.70370017      11.35185008       7.42619084        4       0.00000000
Ni      17.70370017      11.35185008      10.04329700        4       0.00000000
Ni      17.70370017      11.35185008      12.66040317        4       0.00000000
Ni      17.70370017      11.35185008      15.27750933        4       0.00000000
Ni       5.00000000      11.35185008       7.42619084        4       0.00000000
Ni       5.00000000      11.35185008      10.04329700        4       0.00000000
Ni       5.00000000      11.35185008      12.66040317        4       0.00000000
Pt       5.00000000      11.35185008      15.27750933        4       0.00000000
Pt       7.42619084      17.70370017      11.35185008        4       0.00000000
Ni      10.04329700      17.70370017      11.35185008        4       0.00000000
Pt      12.66040317      17.70370017      11.35185008        4       0.00000000
Pt      15.27750933      17.70370017      11.35185008        4       0.00000000
Ni       7.42619084       5.00000000      11.35185008        4       0.00000000
Ni      10.04329700       5.00000000      11.35185008        4       0.00000000
Ni      12.66040317       5.00000000      11.35185008        4       0.00000000
Ni      15.27750933       5.00000000      11.35185008        4       0.00000000
Ni      11.35185008       7.42619084      17.70370017        4       0.00000000
Ni      11.35185008      10.04329700      17.70370017        4       0.00000000
Pt      11.35185008      12.66040317      17.70370017        4       0.00000000
Ni      11.35185008      15.27750933      17.70370017        4       0.00000000
Ni      11.35185008       7.42619084       5.00000000        4       0.00000000
Pt      11.35185008      10.04329700       5.00000000        4       0.00000000
Ni      11.35185008      12.66040317       5.00000000        4       0.00000000
Ni      11.35185008      15.27750933       5.00000000        4       0.00000000
Ni      15.58641681      10.04329700      16.08623961        4       0.00000000
Pt      13.46913345       8.73474392      16.89496989        4       0.00000000
Ni      15.58641681      12.66040317      16.08623961        4       0.00000000
Pt      13.46913345      11.35185008      16.89496989        4       0.00000000
Pt      13.46913345      13.96895625      16.89496989        4       0.00000000
Ni      15.58641681      10.04329700       6.61746056        4       0.00000000
Ni      13.46913345       8.73474392       5.80873028        4       0.00000000
Ni      15.58641681      12.66040317       6.61746056        4       0.00000000
Ni      13.46913345      11.35185008       5.80873028        4       0.00000000
Pt      13.46913345      13.96895625       5.80873028        4       0.00000000
Pt       7.11728336      10.04329700      16.08623961        4       0.00000000
Pt       9.23456672       8.73474392      16.89496989        4       0.00000000
Ni       7.11728336      12.66040317      16.08623961        4       0.00000000
Ni       9.23456672      11.35185008      16.89496989        4       0.00000000
Ni       9.23456672      13.96895625      16.89496989        4       0.00000000
Ni       7.11728336      10.04329700       6.61746056        4       0.00000000
Pt       9.23456672       8.73474392       5.80873028        4       0.00000000
Ni       7.11728336      12.66040317       6.61746056        4       0.00000000
Pt       9.23456672      11.35185008       5.80873028        4       0.00000000
Ni       9.23456672      13.96895625       5.80873028        4       0.00000000
Ni      16.08623961      15.58641681      10.04329700        4       0.00000000
Ni      16.89496989      13.46913345       8.73474392        4       0.00000000
Ni      16.08623961      15.58641681      12.66040317        4       0.00000000
Pt      16.89496989      13.46913345      11.35185008        4       0.00000000
Ni      16.89496989      13.46913345      13.96895625        4       0.00000000
Ni       6.61746056      15.58641681      10.04329700        4       0.00000000
Pt       5.80873028      13.46913345       8.73474392        4       0.00000000
Ni       6.61746056      15.58641681      12.66040317        4       0.00000000
Ni       5.80873028      13.46913345      11.35185008        4       0.00000000
Pt       5.80873028      13.46913345      13.96895625        4       0.00000000
Pt      16.08623961       7.11728336      10.04329700        4       0.00000000
Pt      16.89496989       9.23456672       8.73474392        4       0.00000000
Ni      16.08623961       7.11728336      12.66040317        4       0.00000000
Ni      16.89496989       9.23456672      11.35185008        4       0.00000000
Ni      16.89496989       9.23456672      13.96895625        4       0.00000000
Ni       6.61746056       7.11728336      10.04329700        4       0.00000000
Ni       5.80873028       9.23456672       8.73474392        4       0.00000000
Ni       6.61746056       7.11728336      12.66040317        4       0.00000000
Ni       5.80873028       9.23456672      11.35185008        4       0.00000000
Ni       5.80873028       9.23456672      13.96895625        4       0.00000000
Ni      10.04329700      16.08623961      15.58641681        4       0.00000000
Pt       8.73474392      16.89496989      13.46913345        4       0.00000000
Ni      12.66040317      16.08623961      15.58641681        4       0.00000000
Ni      11.35185008      16.89496989      13.46913345        4       0.00000000
Ni      13.96895625      16.89496989      13.46913345        4       0.00000000
Ni      10.04329700       6.61746056      15.58641681        4       0.00000000
Ni       8.73474392       5.80873028      13.46913345        4       0.00000000
Ni      12.66040317       6.61746056      15.58641681        4       0.00000000
Pt      11.35185008       5.80873028      13.46913345        4       0.00000000
Pt      13.96895625       5.80873028      13.46913345        4       0.00000000
Ni      10.04329700      16.08623961       7.11728336        4       0.00000000
Ni       8.73474392      16.89496989       9.23456672        4       0.00000000
Ni      12.66040317      16.08623961       7.11728336        4       0.00000000
Ni      11.35185008      16.89496989       9.23456672        4       0.00000000
Ni      13.96895625      16.89496989       9.23456672        4       0.00000000
Ni      10.04329700       6.61746056       7.11728336        4       0.00000000
Ni       8.73474392       5.80873028       9.23456672        4       0.00000000
Ni      12.66040317       6.61746056       7.11728336        4       0.00000000
Pt      11.35185008       5.80873028       9.23456672        4       0.00000000
Ni      13.96895625       5.80873028       9.23456672        4       0.00000000
Ni      14.77768653       7.92601364      14.77768653        4       0.00000000
Ni      14.77768653      14.77768653      14.77768653        4       0.00000000
Ni      14.77768653       7.92601364       7.92601364        4       0.00000000
Ni      14.77768653      14.77768653       7.92601364        4       0.00000000
Ni       7.92601364       7.92601364      14.77768653        4       0.00000000
Ni       7.92601364      14.77768653      14.77768653        4       0.00000000
Ni       7.92601364       7.92601364       7.92601364        4       0.00000000
Ni       7.92601364      14.77768653       7.92601364        4       0.00000000
